c description: Graph pigeonhole principle formula on fast_gnp_random_graph(10,20,0.9)
c generator: CNFgen (0.9.0)
c copyright: (C) 2012-2020 Massimo Lauria <massimo.lauria@uniroma1.it>
c url: https://massimolauria.net/cnfgen
c
p cnf 186 788
1 2 3 4 5 6 7 8 9 10 11 12 13 14 15 16 17 18 19 0
20 21 22 23 24 25 26 27 28 29 30 31 32 33 34 35 36 37 0
38 39 40 41 42 43 44 45 46 47 48 49 50 51 52 53 54 55 56 0
57 58 59 60 61 62 63 64 65 66 67 68 69 70 71 72 73 74 75 0
76 77 78 79 80 81 82 83 84 85 86 87 88 89 90 91 92 0
93 94 95 96 97 98 99 100 101 102 103 104 105 106 107 108 109 0
110 111 112 113 114 115 116 117 118 119 120 121 122 123 124 125 126 127 128 0
129 130 131 132 133 134 135 136 137 138 139 140 141 142 143 144 145 146 147 0
148 149 150 151 152 153 154 155 156 157 158 159 160 161 162 163 164 165 166 167 0
168 169 170 171 172 173 174 175 176 177 178 179 180 181 182 183 184 185 186 0
-1 -20 0
-1 -38 0
-1 -57 0
-1 -76 0
-1 -93 0
-1 -110 0
-1 -129 0
-1 -148 0
-1 -168 0
-20 -38 0
-20 -57 0
-20 -76 0
-20 -93 0
-20 -110 0
-20 -129 0
-20 -148 0
-20 -168 0
-38 -57 0
-38 -76 0
-38 -93 0
-38 -110 0
-38 -129 0
-38 -148 0
-38 -168 0
-57 -76 0
-57 -93 0
-57 -110 0
-57 -129 0
-57 -148 0
-57 -168 0
-76 -93 0
-76 -110 0
-76 -129 0
-76 -148 0
-76 -168 0
-93 -110 0
-93 -129 0
-93 -148 0
-93 -168 0
-110 -129 0
-110 -148 0
-110 -168 0
-129 -148 0
-129 -168 0
-148 -168 0
-2 -21 0
-2 -39 0
-2 -77 0
-2 -94 0
-2 -111 0
-2 -130 0
-2 -149 0
-2 -169 0
-21 -39 0
-21 -77 0
-21 -94 0
-21 -111 0
-21 -130 0
-21 -149 0
-21 -169 0
-39 -77 0
-39 -94 0
-39 -111 0
-39 -130 0
-39 -149 0
-39 -169 0
-77 -94 0
-77 -111 0
-77 -130 0
-77 -149 0
-77 -169 0
-94 -111 0
-94 -130 0
-94 -149 0
-94 -169 0
-111 -130 0
-111 -149 0
-111 -169 0
-130 -149 0
-130 -169 0
-149 -169 0
-3 -22 0
-3 -40 0
-3 -58 0
-3 -78 0
-3 -95 0
-3 -112 0
-3 -131 0
-3 -150 0
-3 -170 0
-22 -40 0
-22 -58 0
-22 -78 0
-22 -95 0
-22 -112 0
-22 -131 0
-22 -150 0
-22 -170 0
-40 -58 0
-40 -78 0
-40 -95 0
-40 -112 0
-40 -131 0
-40 -150 0
-40 -170 0
-58 -78 0
-58 -95 0
-58 -112 0
-58 -131 0
-58 -150 0
-58 -170 0
-78 -95 0
-78 -112 0
-78 -131 0
-78 -150 0
-78 -170 0
-95 -112 0
-95 -131 0
-95 -150 0
-95 -170 0
-112 -131 0
-112 -150 0
-112 -170 0
-131 -150 0
-131 -170 0
-150 -170 0
-4 -23 0
-4 -41 0
-4 -59 0
-4 -113 0
-4 -132 0
-4 -151 0
-4 -171 0
-23 -41 0
-23 -59 0
-23 -113 0
-23 -132 0
-23 -151 0
-23 -171 0
-41 -59 0
-41 -113 0
-41 -132 0
-41 -151 0
-41 -171 0
-59 -113 0
-59 -132 0
-59 -151 0
-59 -171 0
-113 -132 0
-113 -151 0
-113 -171 0
-132 -151 0
-132 -171 0
-151 -171 0
-5 -24 0
-5 -42 0
-5 -60 0
-5 -79 0
-5 -96 0
-5 -114 0
-5 -133 0
-5 -152 0
-5 -172 0
-24 -42 0
-24 -60 0
-24 -79 0
-24 -96 0
-24 -114 0
-24 -133 0
-24 -152 0
-24 -172 0
-42 -60 0
-42 -79 0
-42 -96 0
-42 -114 0
-42 -133 0
-42 -152 0
-42 -172 0
-60 -79 0
-60 -96 0
-60 -114 0
-60 -133 0
-60 -152 0
-60 -172 0
-79 -96 0
-79 -114 0
-79 -133 0
-79 -152 0
-79 -172 0
-96 -114 0
-96 -133 0
-96 -152 0
-96 -172 0
-114 -133 0
-114 -152 0
-114 -172 0
-133 -152 0
-133 -172 0
-152 -172 0
-6 -25 0
-6 -43 0
-6 -61 0
-6 -80 0
-6 -97 0
-6 -115 0
-6 -134 0
-6 -153 0
-6 -173 0
-25 -43 0
-25 -61 0
-25 -80 0
-25 -97 0
-25 -115 0
-25 -134 0
-25 -153 0
-25 -173 0
-43 -61 0
-43 -80 0
-43 -97 0
-43 -115 0
-43 -134 0
-43 -153 0
-43 -173 0
-61 -80 0
-61 -97 0
-61 -115 0
-61 -134 0
-61 -153 0
-61 -173 0
-80 -97 0
-80 -115 0
-80 -134 0
-80 -153 0
-80 -173 0
-97 -115 0
-97 -134 0
-97 -153 0
-97 -173 0
-115 -134 0
-115 -153 0
-115 -173 0
-134 -153 0
-134 -173 0
-153 -173 0
-7 -26 0
-7 -44 0
-7 -62 0
-7 -81 0
-7 -98 0
-7 -135 0
-7 -154 0
-7 -174 0
-26 -44 0
-26 -62 0
-26 -81 0
-26 -98 0
-26 -135 0
-26 -154 0
-26 -174 0
-44 -62 0
-44 -81 0
-44 -98 0
-44 -135 0
-44 -154 0
-44 -174 0
-62 -81 0
-62 -98 0
-62 -135 0
-62 -154 0
-62 -174 0
-81 -98 0
-81 -135 0
-81 -154 0
-81 -174 0
-98 -135 0
-98 -154 0
-98 -174 0
-135 -154 0
-135 -174 0
-154 -174 0
-8 -27 0
-8 -45 0
-8 -63 0
-8 -82 0
-8 -99 0
-8 -116 0
-8 -136 0
-8 -155 0
-8 -175 0
-27 -45 0
-27 -63 0
-27 -82 0
-27 -99 0
-27 -116 0
-27 -136 0
-27 -155 0
-27 -175 0
-45 -63 0
-45 -82 0
-45 -99 0
-45 -116 0
-45 -136 0
-45 -155 0
-45 -175 0
-63 -82 0
-63 -99 0
-63 -116 0
-63 -136 0
-63 -155 0
-63 -175 0
-82 -99 0
-82 -116 0
-82 -136 0
-82 -155 0
-82 -175 0
-99 -116 0
-99 -136 0
-99 -155 0
-99 -175 0
-116 -136 0
-116 -155 0
-116 -175 0
-136 -155 0
-136 -175 0
-155 -175 0
-9 -28 0
-9 -46 0
-9 -64 0
-9 -100 0
-9 -117 0
-9 -137 0
-9 -156 0
-9 -176 0
-28 -46 0
-28 -64 0
-28 -100 0
-28 -117 0
-28 -137 0
-28 -156 0
-28 -176 0
-46 -64 0
-46 -100 0
-46 -117 0
-46 -137 0
-46 -156 0
-46 -176 0
-64 -100 0
-64 -117 0
-64 -137 0
-64 -156 0
-64 -176 0
-100 -117 0
-100 -137 0
-100 -156 0
-100 -176 0
-117 -137 0
-117 -156 0
-117 -176 0
-137 -156 0
-137 -176 0
-156 -176 0
-10 -47 0
-10 -65 0
-10 -83 0
-10 -101 0
-10 -118 0
-10 -138 0
-10 -157 0
-10 -177 0
-47 -65 0
-47 -83 0
-47 -101 0
-47 -118 0
-47 -138 0
-47 -157 0
-47 -177 0
-65 -83 0
-65 -101 0
-65 -118 0
-65 -138 0
-65 -157 0
-65 -177 0
-83 -101 0
-83 -118 0
-83 -138 0
-83 -157 0
-83 -177 0
-101 -118 0
-101 -138 0
-101 -157 0
-101 -177 0
-118 -138 0
-118 -157 0
-118 -177 0
-138 -157 0
-138 -177 0
-157 -177 0
-11 -29 0
-11 -48 0
-11 -66 0
-11 -84 0
-11 -102 0
-11 -119 0
-11 -139 0
-11 -158 0
-11 -178 0
-29 -48 0
-29 -66 0
-29 -84 0
-29 -102 0
-29 -119 0
-29 -139 0
-29 -158 0
-29 -178 0
-48 -66 0
-48 -84 0
-48 -102 0
-48 -119 0
-48 -139 0
-48 -158 0
-48 -178 0
-66 -84 0
-66 -102 0
-66 -119 0
-66 -139 0
-66 -158 0
-66 -178 0
-84 -102 0
-84 -119 0
-84 -139 0
-84 -158 0
-84 -178 0
-102 -119 0
-102 -139 0
-102 -158 0
-102 -178 0
-119 -139 0
-119 -158 0
-119 -178 0
-139 -158 0
-139 -178 0
-158 -178 0
-12 -30 0
-12 -49 0
-12 -67 0
-12 -85 0
-12 -103 0
-12 -120 0
-12 -140 0
-12 -159 0
-12 -179 0
-30 -49 0
-30 -67 0
-30 -85 0
-30 -103 0
-30 -120 0
-30 -140 0
-30 -159 0
-30 -179 0
-49 -67 0
-49 -85 0
-49 -103 0
-49 -120 0
-49 -140 0
-49 -159 0
-49 -179 0
-67 -85 0
-67 -103 0
-67 -120 0
-67 -140 0
-67 -159 0
-67 -179 0
-85 -103 0
-85 -120 0
-85 -140 0
-85 -159 0
-85 -179 0
-103 -120 0
-103 -140 0
-103 -159 0
-103 -179 0
-120 -140 0
-120 -159 0
-120 -179 0
-140 -159 0
-140 -179 0
-159 -179 0
-13 -31 0
-13 -50 0
-13 -68 0
-13 -86 0
-13 -104 0
-13 -121 0
-13 -141 0
-13 -160 0
-13 -180 0
-31 -50 0
-31 -68 0
-31 -86 0
-31 -104 0
-31 -121 0
-31 -141 0
-31 -160 0
-31 -180 0
-50 -68 0
-50 -86 0
-50 -104 0
-50 -121 0
-50 -141 0
-50 -160 0
-50 -180 0
-68 -86 0
-68 -104 0
-68 -121 0
-68 -141 0
-68 -160 0
-68 -180 0
-86 -104 0
-86 -121 0
-86 -141 0
-86 -160 0
-86 -180 0
-104 -121 0
-104 -141 0
-104 -160 0
-104 -180 0
-121 -141 0
-121 -160 0
-121 -180 0
-141 -160 0
-141 -180 0
-160 -180 0
-14 -32 0
-14 -69 0
-14 -87 0
-14 -122 0
-14 -142 0
-14 -161 0
-14 -181 0
-32 -69 0
-32 -87 0
-32 -122 0
-32 -142 0
-32 -161 0
-32 -181 0
-69 -87 0
-69 -122 0
-69 -142 0
-69 -161 0
-69 -181 0
-87 -122 0
-87 -142 0
-87 -161 0
-87 -181 0
-122 -142 0
-122 -161 0
-122 -181 0
-142 -161 0
-142 -181 0
-161 -181 0
-15 -51 0
-15 -70 0
-15 -88 0
-15 -105 0
-15 -123 0
-15 -143 0
-15 -162 0
-51 -70 0
-51 -88 0
-51 -105 0
-51 -123 0
-51 -143 0
-51 -162 0
-70 -88 0
-70 -105 0
-70 -123 0
-70 -143 0
-70 -162 0
-88 -105 0
-88 -123 0
-88 -143 0
-88 -162 0
-105 -123 0
-105 -143 0
-105 -162 0
-123 -143 0
-123 -162 0
-143 -162 0
-16 -33 0
-16 -52 0
-16 -71 0
-16 -89 0
-16 -106 0
-16 -124 0
-16 -144 0
-16 -163 0
-16 -182 0
-33 -52 0
-33 -71 0
-33 -89 0
-33 -106 0
-33 -124 0
-33 -144 0
-33 -163 0
-33 -182 0
-52 -71 0
-52 -89 0
-52 -106 0
-52 -124 0
-52 -144 0
-52 -163 0
-52 -182 0
-71 -89 0
-71 -106 0
-71 -124 0
-71 -144 0
-71 -163 0
-71 -182 0
-89 -106 0
-89 -124 0
-89 -144 0
-89 -163 0
-89 -182 0
-106 -124 0
-106 -144 0
-106 -163 0
-106 -182 0
-124 -144 0
-124 -163 0
-124 -182 0
-144 -163 0
-144 -182 0
-163 -182 0
-17 -34 0
-17 -53 0
-17 -72 0
-17 -90 0
-17 -125 0
-17 -164 0
-17 -183 0
-34 -53 0
-34 -72 0
-34 -90 0
-34 -125 0
-34 -164 0
-34 -183 0
-53 -72 0
-53 -90 0
-53 -125 0
-53 -164 0
-53 -183 0
-72 -90 0
-72 -125 0
-72 -164 0
-72 -183 0
-90 -125 0
-90 -164 0
-90 -183 0
-125 -164 0
-125 -183 0
-164 -183 0
-35 -54 0
-35 -73 0
-35 -91 0
-35 -107 0
-35 -126 0
-35 -145 0
-35 -165 0
-35 -184 0
-54 -73 0
-54 -91 0
-54 -107 0
-54 -126 0
-54 -145 0
-54 -165 0
-54 -184 0
-73 -91 0
-73 -107 0
-73 -126 0
-73 -145 0
-73 -165 0
-73 -184 0
-91 -107 0
-91 -126 0
-91 -145 0
-91 -165 0
-91 -184 0
-107 -126 0
-107 -145 0
-107 -165 0
-107 -184 0
-126 -145 0
-126 -165 0
-126 -184 0
-145 -165 0
-145 -184 0
-165 -184 0
-18 -36 0
-18 -55 0
-18 -74 0
-18 -92 0
-18 -108 0
-18 -127 0
-18 -146 0
-18 -166 0
-18 -185 0
-36 -55 0
-36 -74 0
-36 -92 0
-36 -108 0
-36 -127 0
-36 -146 0
-36 -166 0
-36 -185 0
-55 -74 0
-55 -92 0
-55 -108 0
-55 -127 0
-55 -146 0
-55 -166 0
-55 -185 0
-74 -92 0
-74 -108 0
-74 -127 0
-74 -146 0
-74 -166 0
-74 -185 0
-92 -108 0
-92 -127 0
-92 -146 0
-92 -166 0
-92 -185 0
-108 -127 0
-108 -146 0
-108 -166 0
-108 -185 0
-127 -146 0
-127 -166 0
-127 -185 0
-146 -166 0
-146 -185 0
-166 -185 0
-19 -37 0
-19 -56 0
-19 -75 0
-19 -109 0
-19 -128 0
-19 -147 0
-19 -167 0
-19 -186 0
-37 -56 0
-37 -75 0
-37 -109 0
-37 -128 0
-37 -147 0
-37 -167 0
-37 -186 0
-56 -75 0
-56 -109 0
-56 -128 0
-56 -147 0
-56 -167 0
-56 -186 0
-75 -109 0
-75 -128 0
-75 -147 0
-75 -167 0
-75 -186 0
-109 -128 0
-109 -147 0
-109 -167 0
-109 -186 0
-128 -147 0
-128 -167 0
-128 -186 0
-147 -167 0
-147 -186 0
-167 -186 0